n = 26;
lu = [|306, 652
      |-109, -91
      |-525, -274
      |-543, -155
      |6, 429
      |-159, 86
      |-301, 149
      |-185, -169
      |-530, 329
      |497, 629
      |-515, 663
      |194, 574
      |-569, 179
      |224, 670
      |-652, 40
      |303, 640
      |-395, -158
      |15, 578
      |573, 655
      |-211, 397
      |-474, -388
      |-58, 126
      |-600, 410
      |-503, -328
      |-366, 265
      |-134, 430|];
